p cnf 274 980
3 22 43 0
4 13 -42 0
2 16 3 0
30 36 49 0
5 -17 50 0
16 -23 1 0
-28 40 -32 0
-36 30 -25 0
2 -30 29 0
-48 -26 -25 0
19 -5 38 0
-3 47 -11 0
-24 44 -3 0
35 23 33 0
3 17 38 0
23 -18 -33 0
4 -2 -19 0
12 -27 -30 0
29 10 50 0
25 -44 -35 0
17 47 -31 0
-48 -28 47 0
43 24 -30 0
-28 -13 -38 0
17 -27 49 0
29 -10 43 0
29 -10 -11 0
13 34 10 0
-3 -49 -30 0
27 -1 2 0
-44 -23 -38 0
14 6 -28 0
-46 -23 -35 0
-44 41 -14 0
-29 -34 -47 0
31 -47 25 0
-5 -21 9 0
-18 -34 32 0
34 -10 -37 0
-3 -44 43 0
-18 31 9 0
-43 -2 21 0
-18 10 8 0
-43 13 -28 0
46 -35 50 0
34 -30 -39 0
43 -8 6 0
-50 18 -47 0
32 21 36 0
-36 48 -32 0
1 2 51 0
-1 2 -51 0
1 -2 -51 0
-1 -2 51 0
-5 -6 52 0
5 -6 -52 0
-5 6 -52 0
5 6 52 0
8 11 53 0
-8 11 -53 0
8 -11 -53 0
-8 -11 53 0
12 18 54 0
-12 18 -54 0
12 -18 -54 0
-12 -18 54 0
21 23 55 0
-21 23 -55 0
21 -23 -55 0
-21 -23 55 0
26 27 56 0
-26 27 -56 0
26 -27 -56 0
-26 -27 56 0
-28 -31 57 0
28 -31 -57 0
-28 31 -57 0
28 31 57 0
-36 37 58 0
36 37 -58 0
-36 -37 -58 0
36 -37 58 0
-38 -39 59 0
38 -39 -59 0
-38 39 -59 0
38 39 59 0
-41 42 60 0
41 42 -60 0
-41 -42 -60 0
41 -42 60 0
50 -51 61 0
-50 -51 -61 0
50 51 -61 0
-50 51 61 0
52 -53 62 0
-52 -53 -62 0
52 53 -62 0
-52 53 62 0
54 -55 63 0
-54 -55 -63 0
54 55 -63 0
-54 55 63 0
56 -57 64 0
-56 -57 -64 0
56 57 -64 0
-56 57 64 0
58 -59 65 0
-58 -59 -65 0
58 59 -65 0
-58 59 65 0
60 -61 66 0
-60 -61 -66 0
60 61 -66 0
-60 61 66 0
62 -63 67 0
-62 -63 -67 0
62 63 -67 0
-62 63 67 0
64 -65 68 0
-64 -65 -68 0
64 65 -68 0
-64 65 68 0
-66 -67 68 0
66 -67 -68 0
-66 67 -68 0
66 67 68 0
1 5 69 0
-1 5 -69 0
1 -5 -69 0
-1 -5 69 0
-6 -8 70 0
6 -8 -70 0
-6 8 -70 0
6 8 70 0
9 10 71 0
-9 10 -71 0
9 -10 -71 0
-9 -10 71 0
11 13 72 0
-11 13 -72 0
11 -13 -72 0
-11 -13 72 0
-15 -16 73 0
15 -16 -73 0
-15 16 -73 0
15 16 73 0
-21 25 74 0
21 25 -74 0
-21 -25 -74 0
21 -25 74 0
-26 28 75 0
26 28 -75 0
-26 -28 -75 0
26 -28 75 0
29 30 76 0
-29 30 -76 0
29 -30 -76 0
-29 -30 76 0
31 -33 77 0
-31 -33 -77 0
31 33 -77 0
-31 33 77 0
-34 -37 78 0
34 -37 -78 0
-34 37 -78 0
34 37 78 0
39 -40 79 0
-39 -40 -79 0
39 40 -79 0
-39 40 79 0
42 -43 80 0
-42 -43 -80 0
42 43 -80 0
-42 43 80 0
-47 48 81 0
47 48 -81 0
-47 -48 -81 0
47 -48 81 0
69 -70 82 0
-69 -70 -82 0
69 70 -82 0
-69 70 82 0
71 -72 83 0
-71 -72 -83 0
71 72 -83 0
-71 72 83 0
73 -74 84 0
-73 -74 -84 0
73 74 -84 0
-73 74 84 0
75 -76 85 0
-75 -76 -85 0
75 76 -85 0
-75 76 85 0
77 -78 86 0
-77 -78 -86 0
77 78 -86 0
-77 78 86 0
79 -80 87 0
-79 -80 -87 0
79 80 -87 0
-79 80 87 0
81 -82 88 0
-81 -82 -88 0
81 82 -88 0
-81 82 88 0
83 -84 89 0
-83 -84 -89 0
83 84 -89 0
-83 84 89 0
85 -86 90 0
-85 -86 -90 0
85 86 -90 0
-85 86 90 0
87 -88 91 0
-87 -88 -91 0
87 88 -91 0
-87 88 91 0
89 -90 92 0
-89 -90 -92 0
89 90 -92 0
-89 90 92 0
91 92 0
-91 -92 0
1 2 93 0
-1 2 -93 0
1 -2 -93 0
-1 -2 93 0
-5 7 94 0
5 7 -94 0
-5 -7 -94 0
5 -7 94 0
-11 12 95 0
11 12 -95 0
-11 -12 -95 0
11 -12 95 0
-13 -14 96 0
13 -14 -96 0
-13 14 -96 0
13 14 96 0
15 -16 97 0
-15 -16 -97 0
15 16 -97 0
-15 16 97 0
18 20 98 0
-18 20 -98 0
18 -20 -98 0
-18 -20 98 0
21 -23 99 0
-21 -23 -99 0
21 23 -99 0
-21 23 99 0
25 30 100 0
-25 30 -100 0
25 -30 -100 0
-25 -30 100 0
31 -32 101 0
-31 -32 -101 0
31 32 -101 0
-31 32 101 0
-35 36 102 0
35 36 -102 0
-35 -36 -102 0
35 -36 102 0
37 -45 103 0
-37 -45 -103 0
37 45 -103 0
-37 45 103 0
92 -93 104 0
-92 -93 -104 0
92 93 -104 0
-92 93 104 0
94 -95 105 0
-94 -95 -105 0
94 95 -105 0
-94 95 105 0
96 -97 106 0
-96 -97 -106 0
96 97 -106 0
-96 97 106 0
98 -99 107 0
-98 -99 -107 0
98 99 -107 0
-98 99 107 0
100 -101 108 0
-100 -101 -108 0
100 101 -108 0
-100 101 108 0
102 -103 109 0
-102 -103 -109 0
102 103 -109 0
-102 103 109 0
104 -105 110 0
-104 -105 -110 0
104 105 -110 0
-104 105 110 0
106 -107 111 0
-106 -107 -111 0
106 107 -111 0
-106 107 111 0
108 -109 112 0
-108 -109 -112 0
108 109 -112 0
-108 109 112 0
-110 -111 112 0
110 -111 -112 0
-110 111 -112 0
110 111 112 0
1 3 113 0
-1 3 -113 0
1 -3 -113 0
-1 -3 113 0
6 -10 114 0
-6 -10 -114 0
6 10 -114 0
-6 10 114 0
-11 12 115 0
11 12 -115 0
-11 -12 -115 0
11 -12 115 0
-13 -14 116 0
13 -14 -116 0
-13 14 -116 0
13 14 116 0
15 -16 117 0
-15 -16 -117 0
15 16 -117 0
-15 16 117 0
17 -18 118 0
-17 -18 -118 0
17 18 -118 0
-17 18 118 0
20 23 119 0
-20 23 -119 0
20 -23 -119 0
-20 -23 119 0
24 25 120 0
-24 25 -120 0
24 -25 -120 0
-24 -25 120 0
-26 -29 121 0
26 -29 -121 0
-26 29 -121 0
26 29 121 0
-30 31 122 0
30 31 -122 0
-30 -31 -122 0
30 -31 122 0
34 35 123 0
-34 35 -123 0
34 -35 -123 0
-34 -35 123 0
-36 -37 124 0
36 -37 -124 0
-36 37 -124 0
36 37 124 0
39 -43 125 0
-39 -43 -125 0
39 43 -125 0
-39 43 125 0
-45 46 126 0
45 46 -126 0
-45 -46 -126 0
45 -46 126 0
47 48 127 0
-47 48 -127 0
47 -48 -127 0
-47 -48 127 0
113 -114 128 0
-113 -114 -128 0
113 114 -128 0
-113 114 128 0
115 -116 129 0
-115 -116 -129 0
115 116 -129 0
-115 116 129 0
117 -118 130 0
-117 -118 -130 0
117 118 -130 0
-117 118 130 0
119 -120 131 0
-119 -120 -131 0
119 120 -131 0
-119 120 131 0
121 -122 132 0
-121 -122 -132 0
121 122 -132 0
-121 122 132 0
123 -124 133 0
-123 -124 -133 0
123 124 -133 0
-123 124 133 0
125 -126 134 0
-125 -126 -134 0
125 126 -134 0
-125 126 134 0
127 -128 135 0
-127 -128 -135 0
127 128 -135 0
-127 128 135 0
129 -130 136 0
-129 -130 -136 0
129 130 -136 0
-129 130 136 0
131 -132 137 0
-131 -132 -137 0
131 132 -137 0
-131 132 137 0
133 -134 138 0
-133 -134 -138 0
133 134 -138 0
-133 134 138 0
135 -136 139 0
-135 -136 -139 0
135 136 -139 0
-135 136 139 0
137 -138 140 0
-137 -138 -140 0
137 138 -140 0
-137 138 140 0
139 140 0
-139 -140 0
-1 2 141 0
1 2 -141 0
-1 -2 -141 0
1 -2 141 0
3 -4 142 0
-3 -4 -142 0
3 4 -142 0
-3 4 142 0
-5 7 143 0
5 7 -143 0
-5 -7 -143 0
5 -7 143 0
8 -9 144 0
-8 -9 -144 0
8 9 -144 0
-8 9 144 0
10 -11 145 0
-10 -11 -145 0
10 11 -145 0
-10 11 145 0
-14 -16 146 0
14 -16 -146 0
-14 16 -146 0
14 16 146 0
18 -20 147 0
-18 -20 -147 0
18 20 -147 0
-18 20 147 0
21 -25 148 0
-21 -25 -148 0
21 25 -148 0
-21 25 148 0
-27 -29 149 0
27 -29 -149 0
-27 29 -149 0
27 29 149 0
-30 32 150 0
30 32 -150 0
-30 -32 -150 0
30 -32 150 0
-33 35 151 0
33 35 -151 0
-33 -35 -151 0
33 -35 151 0
36 -39 152 0
-36 -39 -152 0
36 39 -152 0
-36 39 152 0
-40 -41 153 0
40 -41 -153 0
-40 41 -153 0
40 41 153 0
-42 43 154 0
42 43 -154 0
-42 -43 -154 0
42 -43 154 0
44 -45 155 0
-44 -45 -155 0
44 45 -155 0
-44 45 155 0
46 -47 156 0
-46 -47 -156 0
46 47 -156 0
-46 47 156 0
140 -141 157 0
-140 -141 -157 0
140 141 -157 0
-140 141 157 0
142 -143 158 0
-142 -143 -158 0
142 143 -158 0
-142 143 158 0
144 -145 159 0
-144 -145 -159 0
144 145 -159 0
-144 145 159 0
146 -147 160 0
-146 -147 -160 0
146 147 -160 0
-146 147 160 0
148 -149 161 0
-148 -149 -161 0
148 149 -161 0
-148 149 161 0
150 -151 162 0
-150 -151 -162 0
150 151 -162 0
-150 151 162 0
152 -153 163 0
-152 -153 -163 0
152 153 -163 0
-152 153 163 0
154 -155 164 0
-154 -155 -164 0
154 155 -164 0
-154 155 164 0
156 -157 165 0
-156 -157 -165 0
156 157 -165 0
-156 157 165 0
158 -159 166 0
-158 -159 -166 0
158 159 -166 0
-158 159 166 0
160 -161 167 0
-160 -161 -167 0
160 161 -167 0
-160 161 167 0
162 -163 168 0
-162 -163 -168 0
162 163 -168 0
-162 163 168 0
164 -165 169 0
-164 -165 -169 0
164 165 -169 0
-164 165 169 0
166 -167 170 0
-166 -167 -170 0
166 167 -170 0
-166 167 170 0
-168 -169 170 0
168 -169 -170 0
-168 169 -170 0
168 169 170 0
1 6 171 0
-1 6 -171 0
1 -6 -171 0
-1 -6 171 0
-7 11 172 0
7 11 -172 0
-7 -11 -172 0
7 -11 172 0
12 16 173 0
-12 16 -173 0
12 -16 -173 0
-12 -16 173 0
-18 -19 174 0
18 -19 -174 0
-18 19 -174 0
18 19 174 0
23 -25 175 0
-23 -25 -175 0
23 25 -175 0
-23 25 175 0
26 27 176 0
-26 27 -176 0
26 -27 -176 0
-26 -27 176 0
-29 30 177 0
29 30 -177 0
-29 -30 -177 0
29 -30 177 0
-32 -36 178 0
32 -36 -178 0
-32 36 -178 0
32 36 178 0
38 41 179 0
-38 41 -179 0
38 -41 -179 0
-38 -41 179 0
-43 -45 180 0
43 -45 -180 0
-43 45 -180 0
43 45 180 0
-49 50 181 0
49 50 -181 0
-49 -50 -181 0
49 -50 181 0
171 -172 182 0
-171 -172 -182 0
171 172 -182 0
-171 172 182 0
173 -174 183 0
-173 -174 -183 0
173 174 -183 0
-173 174 183 0
175 -176 184 0
-175 -176 -184 0
175 176 -184 0
-175 176 184 0
177 -178 185 0
-177 -178 -185 0
177 178 -185 0
-177 178 185 0
179 -180 186 0
-179 -180 -186 0
179 180 -186 0
-179 180 186 0
181 -182 187 0
-181 -182 -187 0
181 182 -187 0
-181 182 187 0
183 -184 188 0
-183 -184 -188 0
183 184 -188 0
-183 184 188 0
185 -186 189 0
-185 -186 -189 0
185 186 -189 0
-185 186 189 0
-187 -188 189 0
187 -188 -189 0
-187 188 -189 0
187 188 189 0
-1 2 190 0
1 2 -190 0
-1 -2 -190 0
1 -2 190 0
3 6 191 0
-3 6 -191 0
3 -6 -191 0
-3 -6 191 0
-7 13 192 0
7 13 -192 0
-7 -13 -192 0
7 -13 192 0
14 -15 193 0
-14 -15 -193 0
14 15 -193 0
-14 15 193 0
-17 20 194 0
17 20 -194 0
-17 -20 -194 0
17 -20 194 0
-21 -22 195 0
21 -22 -195 0
-21 22 -195 0
21 22 195 0
-31 33 196 0
31 33 -196 0
-31 -33 -196 0
31 -33 196 0
-34 35 197 0
34 35 -197 0
-34 -35 -197 0
34 -35 197 0
36 38 198 0
-36 38 -198 0
36 -38 -198 0
-36 -38 198 0
40 -41 199 0
-40 -41 -199 0
40 41 -199 0
-40 41 199 0
-42 -43 200 0
42 -43 -200 0
-42 43 -200 0
42 43 200 0
44 46 201 0
-44 46 -201 0
44 -46 -201 0
-44 -46 201 0
190 -191 202 0
-190 -191 -202 0
190 191 -202 0
-190 191 202 0
192 -193 203 0
-192 -193 -203 0
192 193 -203 0
-192 193 203 0
194 -195 204 0
-194 -195 -204 0
194 195 -204 0
-194 195 204 0
196 -197 205 0
-196 -197 -205 0
196 197 -205 0
-196 197 205 0
198 -199 206 0
-198 -199 -206 0
198 199 -206 0
-198 199 206 0
200 -201 207 0
-200 -201 -207 0
200 201 -207 0
-200 201 207 0
202 -203 208 0
-202 -203 -208 0
202 203 -208 0
-202 203 208 0
204 -205 209 0
-204 -205 -209 0
204 205 -209 0
-204 205 209 0
206 -207 210 0
-206 -207 -210 0
206 207 -210 0
-206 207 210 0
-208 -209 210 0
208 -209 -210 0
-208 209 -210 0
208 209 210 0
-1 -4 211 0
1 -4 -211 0
-1 4 -211 0
1 4 211 0
5 -6 212 0
-5 -6 -212 0
5 6 -212 0
-5 6 212 0
8 13 213 0
-8 13 -213 0
8 -13 -213 0
-8 -13 213 0
14 15 214 0
-14 15 -214 0
14 -15 -214 0
-14 -15 214 0
-17 20 215 0
17 20 -215 0
-17 -20 -215 0
17 -20 215 0
-23 25 216 0
23 25 -216 0
-23 -25 -216 0
23 -25 216 0
26 -27 217 0
-26 -27 -217 0
26 27 -217 0
-26 27 217 0
33 -34 218 0
-33 -34 -218 0
33 34 -218 0
-33 34 218 0
-36 -40 219 0
36 -40 -219 0
-36 40 -219 0
36 40 219 0
-41 -42 220 0
41 -42 -220 0
-41 42 -220 0
41 42 220 0
44 -50 221 0
-44 -50 -221 0
44 50 -221 0
-44 50 221 0
211 -212 222 0
-211 -212 -222 0
211 212 -222 0
-211 212 222 0
213 -214 223 0
-213 -214 -223 0
213 214 -223 0
-213 214 223 0
215 -216 224 0
-215 -216 -224 0
215 216 -224 0
-215 216 224 0
217 -218 225 0
-217 -218 -225 0
217 218 -225 0
-217 218 225 0
219 -220 226 0
-219 -220 -226 0
219 220 -226 0
-219 220 226 0
221 -222 227 0
-221 -222 -227 0
221 222 -227 0
-221 222 227 0
223 -224 228 0
-223 -224 -228 0
223 224 -228 0
-223 224 228 0
225 -226 229 0
-225 -226 -229 0
225 226 -229 0
-225 226 229 0
-227 -228 229 0
227 -228 -229 0
-227 228 -229 0
227 228 229 0
-5 6 230 0
5 6 -230 0
-5 -6 -230 0
5 -6 230 0
-7 8 231 0
7 8 -231 0
-7 -8 -231 0
7 -8 231 0
-11 -12 232 0
11 -12 -232 0
-11 12 -232 0
11 12 232 0
-14 16 233 0
14 16 -233 0
-14 -16 -233 0
14 -16 233 0
17 18 234 0
-17 18 -234 0
17 -18 -234 0
-17 -18 234 0
19 20 235 0
-19 20 -235 0
19 -20 -235 0
-19 -20 235 0
22 -23 236 0
-22 -23 -236 0
22 23 -236 0
-22 23 236 0
26 -28 237 0
-26 -28 -237 0
26 28 -237 0
-26 28 237 0
29 -31 238 0
-29 -31 -238 0
29 31 -238 0
-29 31 238 0
33 35 239 0
-33 35 -239 0
33 -35 -239 0
-33 -35 239 0
-36 -38 240 0
36 -38 -240 0
-36 38 -240 0
36 38 240 0
-40 -41 241 0
40 -41 -241 0
-40 41 -241 0
40 41 241 0
-45 47 242 0
45 47 -242 0
-45 -47 -242 0
45 -47 242 0
229 -230 243 0
-229 -230 -243 0
229 230 -243 0
-229 230 243 0
231 -232 244 0
-231 -232 -244 0
231 232 -244 0
-231 232 244 0
233 -234 245 0
-233 -234 -245 0
233 234 -245 0
-233 234 245 0
235 -236 246 0
-235 -236 -246 0
235 236 -246 0
-235 236 246 0
237 -238 247 0
-237 -238 -247 0
237 238 -247 0
-237 238 247 0
239 -240 248 0
-239 -240 -248 0
239 240 -248 0
-239 240 248 0
241 -242 249 0
-241 -242 -249 0
241 242 -249 0
-241 242 249 0
243 -244 250 0
-243 -244 -250 0
243 244 -250 0
-243 244 250 0
245 -246 251 0
-245 -246 -251 0
245 246 -251 0
-245 246 251 0
247 -248 252 0
-247 -248 -252 0
247 248 -252 0
-247 248 252 0
249 -250 253 0
-249 -250 -253 0
249 250 -253 0
-249 250 253 0
251 -252 254 0
-251 -252 -254 0
251 252 -254 0
-251 252 254 0
253 254 0
-253 -254 0
1 6 255 0
-1 6 -255 0
1 -6 -255 0
-1 -6 255 0
-8 -9 256 0
8 -9 -256 0
-8 9 -256 0
8 9 256 0
10 -11 257 0
-10 -11 -257 0
10 11 -257 0
-10 11 257 0
-12 16 258 0
12 16 -258 0
-12 -16 -258 0
12 -16 258 0
-17 20 259 0
17 20 -259 0
-17 -20 -259 0
17 -20 259 0
21 26 260 0
-21 26 -260 0
21 -26 -260 0
-21 -26 260 0
-27 -28 261 0
27 -28 -261 0
-27 28 -261 0
27 28 261 0
29 -35 262 0
-29 -35 -262 0
29 35 -262 0
-29 35 262 0
-37 42 263 0
37 42 -263 0
-37 -42 -263 0
37 -42 263 0
43 -44 264 0
-43 -44 -264 0
43 44 -264 0
-43 44 264 0
45 49 265 0
-45 49 -265 0
45 -49 -265 0
-45 -49 265 0
254 -255 266 0
-254 -255 -266 0
254 255 -266 0
-254 255 266 0
256 -257 267 0
-256 -257 -267 0
256 257 -267 0
-256 257 267 0
258 -259 268 0
-258 -259 -268 0
258 259 -268 0
-258 259 268 0
260 -261 269 0
-260 -261 -269 0
260 261 -269 0
-260 261 269 0
262 -263 270 0
-262 -263 -270 0
262 263 -270 0
-262 263 270 0
264 -265 271 0
-264 -265 -271 0
264 265 -271 0
-264 265 271 0
266 -267 272 0
-266 -267 -272 0
266 267 -272 0
-266 267 272 0
268 -269 273 0
-268 -269 -273 0
268 269 -273 0
-268 269 273 0
270 -271 274 0
-270 -271 -274 0
270 271 -274 0
-270 271 274 0
-272 -273 274 0
272 -273 -274 0
-272 273 -274 0
272 273 274 0
